c FILE: n200d20/random-n200-d20-2.col

p edge 200 3980
e 1 4
e 1 5
e 1 12
e 1 13
e 1 20
e 1 21
e 1 28
e 1 38
e 1 42
e 1 44
e 1 50
e 1 51
e 1 54
e 1 68
e 1 74
e 1 78
e 1 79
e 1 85
e 1 88
e 1 89
e 1 93
e 1 98
e 1 102
e 1 104
e 1 107
e 1 110
e 1 117
e 1 121
e 1 127
e 1 135
e 1 140
e 1 142
e 1 146
e 1 151
e 1 154
e 1 155
e 1 156
e 1 166
e 1 169
e 1 174
e 1 179
e 1 186
e 1 199
e 2 6
e 2 12
e 2 21
e 2 22
e 2 24
e 2 25
e 2 26
e 2 27
e 2 37
e 2 41
e 2 44
e 2 46
e 2 53
e 2 76
e 2 77
e 2 79
e 2 82
e 2 87
e 2 95
e 2 120
e 2 122
e 2 125
e 2 130
e 2 133
e 2 136
e 2 147
e 2 158
e 2 168
e 2 184
e 2 185
e 2 190
e 3 4
e 3 7
e 3 9
e 3 12
e 3 42
e 3 46
e 3 49
e 3 50
e 3 52
e 3 60
e 3 63
e 3 64
e 3 71
e 3 77
e 3 79
e 3 82
e 3 83
e 3 96
e 3 100
e 3 101
e 3 102
e 3 109
e 3 116
e 3 117
e 3 120
e 3 121
e 3 126
e 3 134
e 3 137
e 3 152
e 3 159
e 3 166
e 3 167
e 3 169
e 3 183
e 3 188
e 3 190
e 3 194
e 3 197
e 3 199
e 4 15
e 4 29
e 4 32
e 4 37
e 4 40
e 4 43
e 4 44
e 4 50
e 4 52
e 4 56
e 4 58
e 4 59
e 4 60
e 4 62
e 4 68
e 4 69
e 4 74
e 4 77
e 4 92
e 4 99
e 4 100
e 4 102
e 4 109
e 4 114
e 4 116
e 4 119
e 4 126
e 4 136
e 4 137
e 4 140
e 4 147
e 4 151
e 4 167
e 4 177
e 4 194
e 4 200
e 5 10
e 5 13
e 5 25
e 5 34
e 5 38
e 5 40
e 5 44
e 5 52
e 5 55
e 5 58
e 5 59
e 5 73
e 5 75
e 5 81
e 5 82
e 5 84
e 5 94
e 5 99
e 5 105
e 5 107
e 5 110
e 5 111
e 5 112
e 5 118
e 5 125
e 5 128
e 5 132
e 5 144
e 5 148
e 5 150
e 5 160
e 5 164
e 5 165
e 5 169
e 5 171
e 5 173
e 5 181
e 5 184
e 5 187
e 5 189
e 5 191
e 5 192
e 5 194
e 5 198
e 6 14
e 6 18
e 6 20
e 6 22
e 6 31
e 6 39
e 6 41
e 6 42
e 6 44
e 6 48
e 6 51
e 6 54
e 6 55
e 6 57
e 6 64
e 6 68
e 6 74
e 6 76
e 6 83
e 6 85
e 6 87
e 6 88
e 6 92
e 6 105
e 6 108
e 6 109
e 6 120
e 6 121
e 6 122
e 6 134
e 6 139
e 6 140
e 6 143
e 6 152
e 6 165
e 6 167
e 6 169
e 6 172
e 6 182
e 6 186
e 6 187
e 6 188
e 6 197
e 7 15
e 7 16
e 7 23
e 7 24
e 7 26
e 7 29
e 7 33
e 7 49
e 7 61
e 7 62
e 7 68
e 7 72
e 7 74
e 7 79
e 7 85
e 7 88
e 7 93
e 7 94
e 7 97
e 7 101
e 7 103
e 7 109
e 7 110
e 7 112
e 7 114
e 7 118
e 7 119
e 7 129
e 7 137
e 7 142
e 7 149
e 7 151
e 7 155
e 7 157
e 7 158
e 7 162
e 7 165
e 7 170
e 7 171
e 7 180
e 7 183
e 7 184
e 7 186
e 8 11
e 8 13
e 8 17
e 8 24
e 8 27
e 8 31
e 8 37
e 8 47
e 8 48
e 8 49
e 8 53
e 8 73
e 8 75
e 8 77
e 8 81
e 8 91
e 8 93
e 8 98
e 8 105
e 8 108
e 8 110
e 8 111
e 8 114
e 8 120
e 8 121
e 8 123
e 8 128
e 8 132
e 8 154
e 8 159
e 8 165
e 8 166
e 8 170
e 8 171
e 8 181
e 8 186
e 8 197
e 9 10
e 9 14
e 9 15
e 9 18
e 9 19
e 9 23
e 9 28
e 9 29
e 9 30
e 9 32
e 9 38
e 9 44
e 9 47
e 9 52
e 9 58
e 9 62
e 9 63
e 9 67
e 9 70
e 9 76
e 9 77
e 9 79
e 9 84
e 9 85
e 9 93
e 9 116
e 9 125
e 9 126
e 9 138
e 9 140
e 9 142
e 9 143
e 9 148
e 9 150
e 9 153
e 9 157
e 9 162
e 9 168
e 9 182
e 9 189
e 10 17
e 10 34
e 10 45
e 10 47
e 10 51
e 10 57
e 10 60
e 10 61
e 10 72
e 10 79
e 10 80
e 10 81
e 10 84
e 10 87
e 10 93
e 10 96
e 10 99
e 10 112
e 10 113
e 10 118
e 10 135
e 10 137
e 10 140
e 10 141
e 10 147
e 10 170
e 10 176
e 10 177
e 10 186
e 10 194
e 10 195
e 11 14
e 11 15
e 11 20
e 11 28
e 11 32
e 11 33
e 11 36
e 11 41
e 11 44
e 11 47
e 11 48
e 11 74
e 11 77
e 11 91
e 11 92
e 11 96
e 11 109
e 11 116
e 11 128
e 11 130
e 11 135
e 11 140
e 11 144
e 11 146
e 11 152
e 11 154
e 11 159
e 11 164
e 11 174
e 11 176
e 11 180
e 11 182
e 11 186
e 12 13
e 12 14
e 12 15
e 12 17
e 12 18
e 12 27
e 12 29
e 12 31
e 12 37
e 12 39
e 12 46
e 12 56
e 12 64
e 12 79
e 12 88
e 12 96
e 12 102
e 12 104
e 12 106
e 12 110
e 12 115
e 12 116
e 12 130
e 12 141
e 12 144
e 12 145
e 12 152
e 12 155
e 12 160
e 12 175
e 12 185
e 12 189
e 12 190
e 12 195
e 12 198
e 13 15
e 13 21
e 13 27
e 13 30
e 13 47
e 13 53
e 13 54
e 13 68
e 13 75
e 13 79
e 13 84
e 13 88
e 13 89
e 13 91
e 13 94
e 13 96
e 13 97
e 13 98
e 13 100
e 13 112
e 13 115
e 13 119
e 13 123
e 13 128
e 13 132
e 13 135
e 13 136
e 13 140
e 13 142
e 13 143
e 13 150
e 13 152
e 13 155
e 13 161
e 13 167
e 13 169
e 13 172
e 13 175
e 13 180
e 13 181
e 13 182
e 13 183
e 13 186
e 13 196
e 14 16
e 14 27
e 14 42
e 14 47
e 14 48
e 14 53
e 14 56
e 14 61
e 14 64
e 14 65
e 14 67
e 14 68
e 14 72
e 14 85
e 14 86
e 14 94
e 14 102
e 14 106
e 14 112
e 14 114
e 14 116
e 14 120
e 14 121
e 14 137
e 14 152
e 14 167
e 14 170
e 14 173
e 14 178
e 14 185
e 14 193
e 14 195
e 15 18
e 15 23
e 15 27
e 15 28
e 15 32
e 15 38
e 15 50
e 15 59
e 15 60
e 15 75
e 15 80
e 15 81
e 15 83
e 15 84
e 15 91
e 15 97
e 15 107
e 15 109
e 15 121
e 15 130
e 15 138
e 15 146
e 15 149
e 15 153
e 15 155
e 15 156
e 15 161
e 15 163
e 15 175
e 15 178
e 15 185
e 15 196
e 16 21
e 16 22
e 16 23
e 16 24
e 16 25
e 16 29
e 16 30
e 16 32
e 16 34
e 16 36
e 16 47
e 16 54
e 16 66
e 16 68
e 16 76
e 16 96
e 16 105
e 16 108
e 16 119
e 16 140
e 16 143
e 16 145
e 16 152
e 16 160
e 16 161
e 16 182
e 16 185
e 16 189
e 16 191
e 16 194
e 16 196
e 17 31
e 17 34
e 17 35
e 17 45
e 17 54
e 17 55
e 17 73
e 17 99
e 17 107
e 17 114
e 17 115
e 17 123
e 17 134
e 17 139
e 17 143
e 17 149
e 17 150
e 17 151
e 17 153
e 17 154
e 17 157
e 17 164
e 17 174
e 17 176
e 17 187
e 17 195
e 18 19
e 18 25
e 18 46
e 18 47
e 18 53
e 18 56
e 18 57
e 18 61
e 18 73
e 18 75
e 18 77
e 18 85
e 18 86
e 18 87
e 18 97
e 18 100
e 18 112
e 18 113
e 18 117
e 18 125
e 18 127
e 18 128
e 18 131
e 18 132
e 18 139
e 18 145
e 18 166
e 18 168
e 18 179
e 18 184
e 18 192
e 18 195
e 18 197
e 18 200
e 19 22
e 19 32
e 19 37
e 19 44
e 19 57
e 19 68
e 19 70
e 19 73
e 19 77
e 19 91
e 19 92
e 19 93
e 19 102
e 19 112
e 19 113
e 19 119
e 19 120
e 19 121
e 19 124
e 19 125
e 19 128
e 19 129
e 19 132
e 19 137
e 19 140
e 19 143
e 19 145
e 19 150
e 19 156
e 19 165
e 19 167
e 19 170
e 19 178
e 19 182
e 19 185
e 19 199
e 20 21
e 20 25
e 20 32
e 20 38
e 20 39
e 20 45
e 20 48
e 20 50
e 20 55
e 20 58
e 20 59
e 20 60
e 20 71
e 20 77
e 20 81
e 20 89
e 20 90
e 20 99
e 20 101
e 20 107
e 20 111
e 20 124
e 20 125
e 20 132
e 20 136
e 20 139
e 20 155
e 20 162
e 20 174
e 20 175
e 20 177
e 20 182
e 20 184
e 20 187
e 20 191
e 20 192
e 20 195
e 21 22
e 21 25
e 21 28
e 21 30
e 21 34
e 21 52
e 21 61
e 21 66
e 21 67
e 21 70
e 21 75
e 21 78
e 21 82
e 21 84
e 21 86
e 21 88
e 21 92
e 21 97
e 21 106
e 21 115
e 21 119
e 21 128
e 21 129
e 21 130
e 21 133
e 21 134
e 21 135
e 21 137
e 21 159
e 21 167
e 21 169
e 21 186
e 21 187
e 21 188
e 21 191
e 22 35
e 22 42
e 22 47
e 22 49
e 22 51
e 22 56
e 22 57
e 22 59
e 22 65
e 22 69
e 22 75
e 22 83
e 22 87
e 22 91
e 22 97
e 22 107
e 22 108
e 22 122
e 22 123
e 22 125
e 22 133
e 22 139
e 22 144
e 22 147
e 22 149
e 22 151
e 22 152
e 22 157
e 22 160
e 22 176
e 22 177
e 22 180
e 22 187
e 22 188
e 22 192
e 22 199
e 23 25
e 23 32
e 23 35
e 23 41
e 23 47
e 23 49
e 23 50
e 23 51
e 23 55
e 23 57
e 23 61
e 23 64
e 23 67
e 23 83
e 23 87
e 23 93
e 23 95
e 23 111
e 23 130
e 23 131
e 23 134
e 23 137
e 23 139
e 23 140
e 23 144
e 23 145
e 23 148
e 23 152
e 23 155
e 23 160
e 23 161
e 23 169
e 23 170
e 23 173
e 23 177
e 23 190
e 23 191
e 23 196
e 23 200
e 24 25
e 24 42
e 24 44
e 24 45
e 24 47
e 24 52
e 24 54
e 24 55
e 24 57
e 24 61
e 24 63
e 24 65
e 24 68
e 24 72
e 24 90
e 24 93
e 24 96
e 24 116
e 24 126
e 24 129
e 24 135
e 24 136
e 24 141
e 24 147
e 24 152
e 24 157
e 24 164
e 24 184
e 24 186
e 24 187
e 24 189
e 24 192
e 24 193
e 25 27
e 25 32
e 25 39
e 25 41
e 25 44
e 25 46
e 25 49
e 25 50
e 25 51
e 25 58
e 25 61
e 25 62
e 25 69
e 25 71
e 25 77
e 25 91
e 25 95
e 25 96
e 25 105
e 25 111
e 25 116
e 25 121
e 25 125
e 25 126
e 25 127
e 25 128
e 25 129
e 25 134
e 25 143
e 25 147
e 25 151
e 25 154
e 25 157
e 25 167
e 26 39
e 26 55
e 26 73
e 26 88
e 26 89
e 26 93
e 26 98
e 26 102
e 26 109
e 26 123
e 26 128
e 26 129
e 26 139
e 26 144
e 26 145
e 26 149
e 26 153
e 26 171
e 26 180
e 26 189
e 26 190
e 26 191
e 26 196
e 26 197
e 27 33
e 27 37
e 27 39
e 27 40
e 27 44
e 27 46
e 27 51
e 27 58
e 27 59
e 27 64
e 27 78
e 27 85
e 27 86
e 27 87
e 27 91
e 27 95
e 27 100
e 27 104
e 27 106
e 27 109
e 27 113
e 27 114
e 27 117
e 27 120
e 27 123
e 27 125
e 27 129
e 27 135
e 27 143
e 27 160
e 27 164
e 27 169
e 27 177
e 27 188
e 27 189
e 27 191
e 27 192
e 27 197
e 28 30
e 28 32
e 28 33
e 28 44
e 28 45
e 28 52
e 28 53
e 28 59
e 28 63
e 28 66
e 28 67
e 28 72
e 28 77
e 28 84
e 28 89
e 28 100
e 28 103
e 28 104
e 28 105
e 28 112
e 28 119
e 28 121
e 28 126
e 28 131
e 28 133
e 28 135
e 28 141
e 28 142
e 28 145
e 28 148
e 28 155
e 28 157
e 28 158
e 28 163
e 28 167
e 28 172
e 28 175
e 28 196
e 28 199
e 28 200
e 29 34
e 29 38
e 29 42
e 29 43
e 29 45
e 29 53
e 29 54
e 29 57
e 29 58
e 29 73
e 29 75
e 29 78
e 29 83
e 29 86
e 29 100
e 29 114
e 29 116
e 29 123
e 29 124
e 29 128
e 29 137
e 29 141
e 29 163
e 29 165
e 29 176
e 29 178
e 29 183
e 29 187
e 29 192
e 29 196
e 29 198
e 30 33
e 30 39
e 30 41
e 30 43
e 30 44
e 30 49
e 30 54
e 30 57
e 30 64
e 30 66
e 30 69
e 30 73
e 30 75
e 30 76
e 30 83
e 30 96
e 30 98
e 30 101
e 30 107
e 30 110
e 30 113
e 30 115
e 30 120
e 30 121
e 30 122
e 30 147
e 30 151
e 30 155
e 30 164
e 30 172
e 30 174
e 30 177
e 30 179
e 30 180
e 30 185
e 30 188
e 30 191
e 30 194
e 30 196
e 30 200
e 31 39
e 31 41
e 31 46
e 31 52
e 31 55
e 31 65
e 31 74
e 31 75
e 31 77
e 31 80
e 31 84
e 31 87
e 31 92
e 31 95
e 31 97
e 31 99
e 31 100
e 31 103
e 31 105
e 31 114
e 31 117
e 31 123
e 31 126
e 31 127
e 31 133
e 31 139
e 31 140
e 31 142
e 31 148
e 31 152
e 31 153
e 31 164
e 31 169
e 31 177
e 31 178
e 31 180
e 31 181
e 31 187
e 31 188
e 31 192
e 31 194
e 31 199
e 32 37
e 32 39
e 32 42
e 32 46
e 32 51
e 32 52
e 32 56
e 32 58
e 32 66
e 32 69
e 32 75
e 32 78
e 32 82
e 32 83
e 32 89
e 32 90
e 32 93
e 32 95
e 32 96
e 32 97
e 32 98
e 32 102
e 32 103
e 32 104
e 32 107
e 32 109
e 32 114
e 32 126
e 32 132
e 32 147
e 32 154
e 32 156
e 32 159
e 32 161
e 32 163
e 32 169
e 32 170
e 32 175
e 32 178
e 33 41
e 33 55
e 33 59
e 33 63
e 33 67
e 33 78
e 33 81
e 33 85
e 33 92
e 33 94
e 33 96
e 33 97
e 33 98
e 33 99
e 33 101
e 33 104
e 33 124
e 33 141
e 33 147
e 33 149
e 33 151
e 33 153
e 33 165
e 33 167
e 33 170
e 33 171
e 33 174
e 33 177
e 33 183
e 33 188
e 33 192
e 33 193
e 33 194
e 33 195
e 34 35
e 34 37
e 34 44
e 34 47
e 34 48
e 34 52
e 34 54
e 34 55
e 34 67
e 34 81
e 34 84
e 34 93
e 34 98
e 34 104
e 34 109
e 34 117
e 34 121
e 34 125
e 34 128
e 34 132
e 34 137
e 34 140
e 34 141
e 34 143
e 34 152
e 34 153
e 34 163
e 34 168
e 34 170
e 34 173
e 34 183
e 34 186
e 34 187
e 34 188
e 34 193
e 34 197
e 34 199
e 34 200
e 35 48
e 35 49
e 35 51
e 35 52
e 35 59
e 35 74
e 35 75
e 35 85
e 35 88
e 35 89
e 35 97
e 35 98
e 35 99
e 35 100
e 35 101
e 35 114
e 35 124
e 35 125
e 35 130
e 35 131
e 35 134
e 35 137
e 35 138
e 35 145
e 35 147
e 35 151
e 35 155
e 35 156
e 35 157
e 35 172
e 35 189
e 35 190
e 35 194
e 36 44
e 36 50
e 36 51
e 36 52
e 36 54
e 36 64
e 36 74
e 36 76
e 36 77
e 36 81
e 36 88
e 36 89
e 36 93
e 36 97
e 36 98
e 36 110
e 36 111
e 36 116
e 36 117
e 36 122
e 36 125
e 36 127
e 36 136
e 36 137
e 36 148
e 36 151
e 36 167
e 36 168
e 36 171
e 36 172
e 36 178
e 36 184
e 36 199
e 37 40
e 37 47
e 37 49
e 37 53
e 37 58
e 37 61
e 37 66
e 37 69
e 37 70
e 37 76
e 37 82
e 37 85
e 37 92
e 37 93
e 37 100
e 37 102
e 37 109
e 37 115
e 37 133
e 37 145
e 37 152
e 37 156
e 37 157
e 37 160
e 37 167
e 37 171
e 37 182
e 37 183
e 37 193
e 37 197
e 38 41
e 38 43
e 38 44
e 38 45
e 38 60
e 38 65
e 38 66
e 38 67
e 38 71
e 38 75
e 38 91
e 38 94
e 38 95
e 38 103
e 38 106
e 38 111
e 38 114
e 38 129
e 38 130
e 38 132
e 38 147
e 38 153
e 38 154
e 38 159
e 38 161
e 38 165
e 38 175
e 38 189
e 38 190
e 38 193
e 38 195
e 39 50
e 39 62
e 39 65
e 39 70
e 39 71
e 39 74
e 39 78
e 39 84
e 39 87
e 39 89
e 39 92
e 39 94
e 39 95
e 39 96
e 39 100
e 39 106
e 39 109
e 39 116
e 39 119
e 39 122
e 39 125
e 39 131
e 39 132
e 39 133
e 39 138
e 39 152
e 39 154
e 39 167
e 39 168
e 39 171
e 39 172
e 39 179
e 39 180
e 39 182
e 39 183
e 39 191
e 39 192
e 39 194
e 39 196
e 40 43
e 40 53
e 40 60
e 40 62
e 40 72
e 40 75
e 40 79
e 40 85
e 40 86
e 40 87
e 40 96
e 40 124
e 40 129
e 40 142
e 40 143
e 40 146
e 40 147
e 40 148
e 40 153
e 40 158
e 40 159
e 40 160
e 40 164
e 40 166
e 40 174
e 40 178
e 40 179
e 40 183
e 40 191
e 40 193
e 40 198
e 41 64
e 41 76
e 41 78
e 41 80
e 41 85
e 41 92
e 41 96
e 41 98
e 41 109
e 41 114
e 41 121
e 41 136
e 41 143
e 41 145
e 41 146
e 41 149
e 41 151
e 41 152
e 41 155
e 41 156
e 41 166
e 41 169
e 41 173
e 41 185
e 41 192
e 42 55
e 42 60
e 42 61
e 42 64
e 42 65
e 42 74
e 42 79
e 42 82
e 42 84
e 42 85
e 42 91
e 42 92
e 42 93
e 42 95
e 42 96
e 42 97
e 42 98
e 42 110
e 42 119
e 42 124
e 42 126
e 42 128
e 42 131
e 42 132
e 42 137
e 42 138
e 42 143
e 42 147
e 42 152
e 42 153
e 42 155
e 42 158
e 42 161
e 42 163
e 42 172
e 42 178
e 42 180
e 42 185
e 42 186
e 42 190
e 42 192
e 42 195
e 43 46
e 43 57
e 43 59
e 43 66
e 43 72
e 43 74
e 43 75
e 43 81
e 43 95
e 43 97
e 43 102
e 43 105
e 43 109
e 43 113
e 43 116
e 43 123
e 43 129
e 43 131
e 43 136
e 43 138
e 43 139
e 43 140
e 43 142
e 43 143
e 43 144
e 43 145
e 43 166
e 43 173
e 43 175
e 43 176
e 43 177
e 43 181
e 43 191
e 43 197
e 44 50
e 44 51
e 44 57
e 44 59
e 44 66
e 44 70
e 44 72
e 44 76
e 44 82
e 44 86
e 44 90
e 44 97
e 44 99
e 44 102
e 44 109
e 44 111
e 44 118
e 44 119
e 44 125
e 44 127
e 44 133
e 44 134
e 44 135
e 44 139
e 44 142
e 44 146
e 44 149
e 44 151
e 44 153
e 44 158
e 44 165
e 44 166
e 44 170
e 44 175
e 44 181
e 44 190
e 44 194
e 44 196
e 45 55
e 45 59
e 45 60
e 45 61
e 45 70
e 45 72
e 45 75
e 45 78
e 45 81
e 45 82
e 45 83
e 45 87
e 45 88
e 45 94
e 45 95
e 45 97
e 45 98
e 45 102
e 45 105
e 45 106
e 45 110
e 45 114
e 45 115
e 45 117
e 45 124
e 45 127
e 45 128
e 45 131
e 45 132
e 45 136
e 45 142
e 45 143
e 45 144
e 45 145
e 45 150
e 45 158
e 45 163
e 45 183
e 45 188
e 45 190
e 45 192
e 46 51
e 46 52
e 46 55
e 46 57
e 46 65
e 46 69
e 46 81
e 46 82
e 46 83
e 46 84
e 46 89
e 46 97
e 46 99
e 46 103
e 46 109
e 46 115
e 46 127
e 46 129
e 46 133
e 46 134
e 46 135
e 46 157
e 46 169
e 46 176
e 46 178
e 46 187
e 46 189
e 46 190
e 46 192
e 46 196
e 46 197
e 46 198
e 47 63
e 47 73
e 47 79
e 47 85
e 47 92
e 47 93
e 47 94
e 47 98
e 47 103
e 47 106
e 47 109
e 47 114
e 47 119
e 47 121
e 47 122
e 47 126
e 47 130
e 47 131
e 47 141
e 47 148
e 47 149
e 47 155
e 47 157
e 47 159
e 47 161
e 47 164
e 47 167
e 47 172
e 47 177
e 47 184
e 47 189
e 47 190
e 47 193
e 48 49
e 48 50
e 48 52
e 48 54
e 48 55
e 48 56
e 48 58
e 48 62
e 48 66
e 48 74
e 48 78
e 48 81
e 48 94
e 48 96
e 48 98
e 48 107
e 48 108
e 48 113
e 48 114
e 48 134
e 48 137
e 48 138
e 48 141
e 48 144
e 48 147
e 48 158
e 48 164
e 48 169
e 48 174
e 48 176
e 48 178
e 48 180
e 48 193
e 49 62
e 49 69
e 49 76
e 49 80
e 49 85
e 49 102
e 49 111
e 49 120
e 49 124
e 49 129
e 49 133
e 49 137
e 49 144
e 49 158
e 49 160
e 49 166
e 49 182
e 49 183
e 49 187
e 49 190
e 49 192
e 49 194
e 49 197
e 50 57
e 50 64
e 50 65
e 50 68
e 50 70
e 50 75
e 50 76
e 50 78
e 50 88
e 50 95
e 50 97
e 50 99
e 50 104
e 50 113
e 50 116
e 50 118
e 50 123
e 50 126
e 50 128
e 50 129
e 50 130
e 50 136
e 50 139
e 50 145
e 50 146
e 50 153
e 50 154
e 50 155
e 50 156
e 50 157
e 50 160
e 50 164
e 50 165
e 50 178
e 50 179
e 50 180
e 50 193
e 50 194
e 50 195
e 51 54
e 51 57
e 51 59
e 51 62
e 51 67
e 51 71
e 51 88
e 51 90
e 51 92
e 51 95
e 51 96
e 51 104
e 51 117
e 51 118
e 51 123
e 51 125
e 51 134
e 51 146
e 51 150
e 51 152
e 51 157
e 51 160
e 51 163
e 51 167
e 51 168
e 51 170
e 51 171
e 51 175
e 51 177
e 51 183
e 51 185
e 51 188
e 52 53
e 52 55
e 52 56
e 52 60
e 52 62
e 52 63
e 52 67
e 52 71
e 52 72
e 52 74
e 52 83
e 52 84
e 52 86
e 52 97
e 52 106
e 52 108
e 52 111
e 52 113
e 52 122
e 52 126
e 52 129
e 52 132
e 52 134
e 52 144
e 52 146
e 52 154
e 52 159
e 52 162
e 52 170
e 52 171
e 52 175
e 52 183
e 52 199
e 53 71
e 53 76
e 53 80
e 53 85
e 53 86
e 53 90
e 53 91
e 53 104
e 53 106
e 53 109
e 53 111
e 53 131
e 53 142
e 53 152
e 53 154
e 53 157
e 53 159
e 53 162
e 53 163
e 53 180
e 53 185
e 53 195
e 53 198
e 53 199
e 54 57
e 54 60
e 54 63
e 54 64
e 54 78
e 54 82
e 54 85
e 54 90
e 54 91
e 54 103
e 54 105
e 54 107
e 54 108
e 54 112
e 54 114
e 54 125
e 54 127
e 54 139
e 54 142
e 54 144
e 54 145
e 54 148
e 54 154
e 54 157
e 54 170
e 54 172
e 54 173
e 54 177
e 54 186
e 54 187
e 54 191
e 54 196
e 55 63
e 55 68
e 55 73
e 55 79
e 55 86
e 55 89
e 55 97
e 55 98
e 55 99
e 55 110
e 55 117
e 55 118
e 55 131
e 55 133
e 55 139
e 55 146
e 55 153
e 55 161
e 55 171
e 55 175
e 55 179
e 55 182
e 55 186
e 55 193
e 55 196
e 55 198
e 55 200
e 56 60
e 56 63
e 56 65
e 56 70
e 56 71
e 56 73
e 56 74
e 56 77
e 56 86
e 56 91
e 56 93
e 56 94
e 56 96
e 56 101
e 56 104
e 56 105
e 56 117
e 56 121
e 56 127
e 56 128
e 56 138
e 56 143
e 56 148
e 56 151
e 56 157
e 56 165
e 56 184
e 56 188
e 56 191
e 56 194
e 57 59
e 57 61
e 57 68
e 57 69
e 57 70
e 57 76
e 57 79
e 57 82
e 57 88
e 57 90
e 57 95
e 57 96
e 57 99
e 57 101
e 57 106
e 57 108
e 57 112
e 57 115
e 57 117
e 57 123
e 57 128
e 57 131
e 57 157
e 57 158
e 57 163
e 57 167
e 57 176
e 57 180
e 57 186
e 58 64
e 58 67
e 58 82
e 58 86
e 58 88
e 58 90
e 58 95
e 58 104
e 58 112
e 58 118
e 58 121
e 58 128
e 58 137
e 58 140
e 58 145
e 58 147
e 58 154
e 58 157
e 58 159
e 58 198
e 59 60
e 59 76
e 59 77
e 59 86
e 59 99
e 59 102
e 59 104
e 59 109
e 59 110
e 59 113
e 59 130
e 59 135
e 59 138
e 59 144
e 59 145
e 59 157
e 59 169
e 59 170
e 59 171
e 59 173
e 59 175
e 59 176
e 59 178
e 59 181
e 59 186
e 59 188
e 59 189
e 60 68
e 60 71
e 60 91
e 60 93
e 60 94
e 60 99
e 60 105
e 60 106
e 60 108
e 60 110
e 60 113
e 60 115
e 60 118
e 60 121
e 60 125
e 60 128
e 60 130
e 60 148
e 60 149
e 60 170
e 60 172
e 60 179
e 60 181
e 60 182
e 60 183
e 60 185
e 60 187
e 60 188
e 60 189
e 60 194
e 60 198
e 60 200
e 61 67
e 61 70
e 61 72
e 61 75
e 61 82
e 61 86
e 61 96
e 61 98
e 61 99
e 61 101
e 61 102
e 61 118
e 61 119
e 61 120
e 61 121
e 61 127
e 61 135
e 61 138
e 61 142
e 61 144
e 61 145
e 61 161
e 61 167
e 61 169
e 61 172
e 61 173
e 61 182
e 61 184
e 61 196
e 61 200
e 62 64
e 62 65
e 62 66
e 62 81
e 62 89
e 62 94
e 62 110
e 62 111
e 62 112
e 62 113
e 62 119
e 62 123
e 62 127
e 62 134
e 62 135
e 62 149
e 62 156
e 62 159
e 62 160
e 62 167
e 62 170
e 62 178
e 62 179
e 62 185
e 62 188
e 62 198
e 63 67
e 63 78
e 63 84
e 63 85
e 63 89
e 63 92
e 63 95
e 63 98
e 63 105
e 63 122
e 63 123
e 63 137
e 63 151
e 63 167
e 63 180
e 63 185
e 63 186
e 63 191
e 63 194
e 63 197
e 64 69
e 64 73
e 64 78
e 64 84
e 64 91
e 64 101
e 64 102
e 64 104
e 64 105
e 64 106
e 64 112
e 64 115
e 64 119
e 64 124
e 64 128
e 64 135
e 64 146
e 64 152
e 64 172
e 64 178
e 64 184
e 64 185
e 64 186
e 64 187
e 64 188
e 64 190
e 64 192
e 64 199
e 65 69
e 65 79
e 65 80
e 65 81
e 65 82
e 65 93
e 65 96
e 65 97
e 65 98
e 65 103
e 65 108
e 65 112
e 65 119
e 65 120
e 65 122
e 65 127
e 65 130
e 65 135
e 65 139
e 65 140
e 65 162
e 65 164
e 65 170
e 65 173
e 65 174
e 65 188
e 65 193
e 65 196
e 65 198
e 65 199
e 66 69
e 66 72
e 66 74
e 66 75
e 66 81
e 66 85
e 66 99
e 66 106
e 66 112
e 66 124
e 66 128
e 66 130
e 66 138
e 66 159
e 66 162
e 66 167
e 66 173
e 66 177
e 66 180
e 66 185
e 66 187
e 66 189
e 66 196
e 66 197
e 66 198
e 67 71
e 67 81
e 67 83
e 67 85
e 67 87
e 67 93
e 67 94
e 67 98
e 67 101
e 67 104
e 67 106
e 67 107
e 67 109
e 67 130
e 67 133
e 67 138
e 67 141
e 67 146
e 67 149
e 67 152
e 67 153
e 67 154
e 67 161
e 67 163
e 67 167
e 67 169
e 67 173
e 67 174
e 67 175
e 67 198
e 68 69
e 68 71
e 68 83
e 68 92
e 68 93
e 68 97
e 68 101
e 68 102
e 68 108
e 68 116
e 68 117
e 68 119
e 68 129
e 68 133
e 68 138
e 68 140
e 68 142
e 68 144
e 68 151
e 68 157
e 68 159
e 68 180
e 68 186
e 68 189
e 68 191
e 68 194
e 68 197
e 69 72
e 69 79
e 69 82
e 69 86
e 69 87
e 69 91
e 69 96
e 69 98
e 69 99
e 69 105
e 69 111
e 69 112
e 69 114
e 69 116
e 69 119
e 69 121
e 69 124
e 69 127
e 69 133
e 69 142
e 69 146
e 69 153
e 69 154
e 69 157
e 69 160
e 69 164
e 69 167
e 69 168
e 69 174
e 69 177
e 69 180
e 69 187
e 69 191
e 69 193
e 70 71
e 70 72
e 70 84
e 70 93
e 70 95
e 70 111
e 70 114
e 70 121
e 70 122
e 70 139
e 70 141
e 70 149
e 70 152
e 70 159
e 70 160
e 70 162
e 70 166
e 70 169
e 70 179
e 70 180
e 70 182
e 70 183
e 70 184
e 70 200
e 71 72
e 71 77
e 71 79
e 71 88
e 71 90
e 71 105
e 71 109
e 71 110
e 71 122
e 71 130
e 71 132
e 71 137
e 71 138
e 71 139
e 71 144
e 71 146
e 71 148
e 71 150
e 71 154
e 71 159
e 71 160
e 71 170
e 71 177
e 71 179
e 71 180
e 71 183
e 71 185
e 71 193
e 71 200
e 72 93
e 72 95
e 72 103
e 72 104
e 72 109
e 72 112
e 72 116
e 72 120
e 72 122
e 72 124
e 72 136
e 72 139
e 72 140
e 72 141
e 72 143
e 72 144
e 72 157
e 72 183
e 72 192
e 72 196
e 72 197
e 73 82
e 73 88
e 73 92
e 73 99
e 73 105
e 73 113
e 73 121
e 73 131
e 73 143
e 73 144
e 73 148
e 73 163
e 73 167
e 73 173
e 73 197
e 74 80
e 74 82
e 74 86
e 74 98
e 74 99
e 74 106
e 74 116
e 74 119
e 74 121
e 74 124
e 74 136
e 74 143
e 74 144
e 74 146
e 74 154
e 74 155
e 74 157
e 74 167
e 74 169
e 74 172
e 74 176
e 74 178
e 74 183
e 74 186
e 74 187
e 74 189
e 74 193
e 74 197
e 74 200
e 75 79
e 75 80
e 75 93
e 75 98
e 75 102
e 75 103
e 75 104
e 75 108
e 75 111
e 75 121
e 75 122
e 75 129
e 75 139
e 75 155
e 75 161
e 75 163
e 75 170
e 75 172
e 75 196
e 75 197
e 76 84
e 76 90
e 76 94
e 76 96
e 76 97
e 76 100
e 76 105
e 76 107
e 76 110
e 76 116
e 76 119
e 76 121
e 76 126
e 76 156
e 76 164
e 76 173
e 76 176
e 76 188
e 76 189
e 76 190
e 76 192
e 76 199
e 77 79
e 77 98
e 77 113
e 77 115
e 77 125
e 77 128
e 77 130
e 77 132
e 77 136
e 77 139
e 77 143
e 77 156
e 77 158
e 77 160
e 77 166
e 77 168
e 77 171
e 77 186
e 77 187
e 77 199
e 78 83
e 78 97
e 78 98
e 78 104
e 78 105
e 78 111
e 78 114
e 78 126
e 78 127
e 78 142
e 78 143
e 78 156
e 78 158
e 78 166
e 78 169
e 78 171
e 78 172
e 78 179
e 78 189
e 78 190
e 78 195
e 78 196
e 79 81
e 79 87
e 79 91
e 79 96
e 79 100
e 79 101
e 79 114
e 79 138
e 79 142
e 79 152
e 79 171
e 79 174
e 79 175
e 79 177
e 79 178
e 79 180
e 79 182
e 79 183
e 79 184
e 79 192
e 79 193
e 79 200
e 80 91
e 80 92
e 80 102
e 80 103
e 80 106
e 80 116
e 80 118
e 80 119
e 80 130
e 80 135
e 80 144
e 80 145
e 80 147
e 80 148
e 80 157
e 80 159
e 80 160
e 80 164
e 80 175
e 80 182
e 80 183
e 80 185
e 80 187
e 80 188
e 80 189
e 80 191
e 81 82
e 81 90
e 81 94
e 81 96
e 81 99
e 81 103
e 81 112
e 81 114
e 81 121
e 81 126
e 81 127
e 81 128
e 81 132
e 81 141
e 81 145
e 81 150
e 81 154
e 81 161
e 81 162
e 81 163
e 81 166
e 81 172
e 81 174
e 81 179
e 81 184
e 81 185
e 81 193
e 81 195
e 81 196
e 81 197
e 81 198
e 82 100
e 82 105
e 82 108
e 82 110
e 82 111
e 82 113
e 82 120
e 82 122
e 82 127
e 82 129
e 82 145
e 82 171
e 82 172
e 82 174
e 82 175
e 82 182
e 82 184
e 82 185
e 82 192
e 83 86
e 83 94
e 83 96
e 83 98
e 83 100
e 83 104
e 83 110
e 83 118
e 83 120
e 83 123
e 83 124
e 83 128
e 83 133
e 83 135
e 83 139
e 83 144
e 83 146
e 83 151
e 83 152
e 83 157
e 83 159
e 83 162
e 83 166
e 83 177
e 83 178
e 83 179
e 83 186
e 83 190
e 83 191
e 83 193
e 83 197
e 83 200
e 84 86
e 84 98
e 84 101
e 84 102
e 84 107
e 84 108
e 84 109
e 84 114
e 84 118
e 84 122
e 84 134
e 84 139
e 84 140
e 84 147
e 84 149
e 84 153
e 84 156
e 84 158
e 84 171
e 84 175
e 84 177
e 84 179
e 84 186
e 84 191
e 84 196
e 85 88
e 85 89
e 85 99
e 85 101
e 85 107
e 85 108
e 85 116
e 85 122
e 85 132
e 85 134
e 85 137
e 85 145
e 85 147
e 85 158
e 85 161
e 85 162
e 85 163
e 85 172
e 85 182
e 85 189
e 85 193
e 85 196
e 86 87
e 86 89
e 86 95
e 86 98
e 86 99
e 86 106
e 86 128
e 86 130
e 86 140
e 86 142
e 86 143
e 86 144
e 86 160
e 86 168
e 86 172
e 86 173
e 86 174
e 86 175
e 86 176
e 86 177
e 86 188
e 86 190
e 86 193
e 86 194
e 87 90
e 87 94
e 87 96
e 87 106
e 87 107
e 87 110
e 87 114
e 87 117
e 87 123
e 87 125
e 87 135
e 87 141
e 87 144
e 87 145
e 87 149
e 87 151
e 87 152
e 87 153
e 87 170
e 87 172
e 87 173
e 87 179
e 87 180
e 88 95
e 88 108
e 88 117
e 88 129
e 88 132
e 88 138
e 88 140
e 88 147
e 88 149
e 88 167
e 88 174
e 88 176
e 88 177
e 88 179
e 88 183
e 88 184
e 88 195
e 88 200
e 89 97
e 89 100
e 89 101
e 89 106
e 89 108
e 89 111
e 89 112
e 89 116
e 89 121
e 89 126
e 89 127
e 89 128
e 89 129
e 89 131
e 89 134
e 89 135
e 89 140
e 89 141
e 89 143
e 89 160
e 89 169
e 89 170
e 89 183
e 89 188
e 89 189
e 89 190
e 89 191
e 89 194
e 89 197
e 89 199
e 89 200
e 90 94
e 90 98
e 90 105
e 90 108
e 90 115
e 90 116
e 90 121
e 90 123
e 90 126
e 90 128
e 90 132
e 90 134
e 90 146
e 90 158
e 90 159
e 90 160
e 90 162
e 90 168
e 90 186
e 90 193
e 90 195
e 91 95
e 91 104
e 91 105
e 91 106
e 91 110
e 91 117
e 91 123
e 91 124
e 91 126
e 91 132
e 91 134
e 91 138
e 91 139
e 91 140
e 91 143
e 91 148
e 91 149
e 91 152
e 91 169
e 91 170
e 91 174
e 91 184
e 91 188
e 91 194
e 91 199
e 92 93
e 92 95
e 92 99
e 92 103
e 92 105
e 92 107
e 92 115
e 92 120
e 92 124
e 92 125
e 92 129
e 92 130
e 92 138
e 92 140
e 92 148
e 92 155
e 92 156
e 92 157
e 92 158
e 92 170
e 92 178
e 92 179
e 92 189
e 93 96
e 93 104
e 93 105
e 93 106
e 93 111
e 93 113
e 93 123
e 93 125
e 93 126
e 93 128
e 93 135
e 93 136
e 93 137
e 93 139
e 93 154
e 93 160
e 93 166
e 93 172
e 93 174
e 93 176
e 93 178
e 93 179
e 93 181
e 93 182
e 93 190
e 94 97
e 94 100
e 94 102
e 94 104
e 94 109
e 94 112
e 94 133
e 94 142
e 94 145
e 94 146
e 94 147
e 94 151
e 94 157
e 94 159
e 94 162
e 94 166
e 94 167
e 94 174
e 94 182
e 94 188
e 94 193
e 95 100
e 95 101
e 95 102
e 95 108
e 95 111
e 95 124
e 95 126
e 95 128
e 95 140
e 95 143
e 95 159
e 95 174
e 95 177
e 95 178
e 95 184
e 95 185
e 95 192
e 95 199
e 96 103
e 96 109
e 96 115
e 96 133
e 96 134
e 96 136
e 96 149
e 96 158
e 96 167
e 96 169
e 96 179
e 96 190
e 97 112
e 97 115
e 97 118
e 97 122
e 97 126
e 97 132
e 97 135
e 97 136
e 97 141
e 97 142
e 97 144
e 97 147
e 97 151
e 97 153
e 97 163
e 97 165
e 97 170
e 97 177
e 97 179
e 97 182
e 97 183
e 97 186
e 97 198
e 97 199
e 98 102
e 98 107
e 98 110
e 98 113
e 98 120
e 98 124
e 98 126
e 98 128
e 98 133
e 98 145
e 98 148
e 98 152
e 98 156
e 98 164
e 98 173
e 98 176
e 98 178
e 98 180
e 98 185
e 98 199
e 99 103
e 99 104
e 99 115
e 99 118
e 99 121
e 99 128
e 99 129
e 99 137
e 99 138
e 99 139
e 99 147
e 99 153
e 99 159
e 99 164
e 99 169
e 99 178
e 99 188
e 99 192
e 99 200
e 100 102
e 100 105
e 100 107
e 100 110
e 100 111
e 100 127
e 100 136
e 100 137
e 100 148
e 100 151
e 100 155
e 100 156
e 100 163
e 100 176
e 100 179
e 100 183
e 100 191
e 101 102
e 101 115
e 101 119
e 101 129
e 101 130
e 101 138
e 101 140
e 101 143
e 101 145
e 101 150
e 101 151
e 101 164
e 101 165
e 101 166
e 101 172
e 101 177
e 101 179
e 101 180
e 101 182
e 101 184
e 101 185
e 101 190
e 101 191
e 101 194
e 101 195
e 102 110
e 102 111
e 102 112
e 102 113
e 102 114
e 102 120
e 102 127
e 102 128
e 102 129
e 102 132
e 102 140
e 102 141
e 102 147
e 102 150
e 102 152
e 102 159
e 102 162
e 102 164
e 102 165
e 102 171
e 102 179
e 102 180
e 102 182
e 102 184
e 102 187
e 102 192
e 103 108
e 103 116
e 103 117
e 103 118
e 103 122
e 103 125
e 103 126
e 103 130
e 103 131
e 103 138
e 103 144
e 103 149
e 103 150
e 103 151
e 103 175
e 103 190
e 103 198
e 104 113
e 104 114
e 104 120
e 104 123
e 104 124
e 104 126
e 104 131
e 104 135
e 104 137
e 104 142
e 104 148
e 104 157
e 104 166
e 104 177
e 104 180
e 104 186
e 104 193
e 104 195
e 105 107
e 105 109
e 105 117
e 105 123
e 105 126
e 105 129
e 105 132
e 105 133
e 105 135
e 105 153
e 105 158
e 105 164
e 105 167
e 105 168
e 105 172
e 105 188
e 105 193
e 105 195
e 105 198
e 106 117
e 106 122
e 106 123
e 106 132
e 106 139
e 106 140
e 106 147
e 106 149
e 106 171
e 106 174
e 106 178
e 106 182
e 106 185
e 106 192
e 106 197
e 106 198
e 106 199
e 107 111
e 107 115
e 107 124
e 107 125
e 107 129
e 107 130
e 107 131
e 107 142
e 107 143
e 107 144
e 107 145
e 107 169
e 107 176
e 107 178
e 107 179
e 107 181
e 107 183
e 107 185
e 107 186
e 107 192
e 107 194
e 107 196
e 108 109
e 108 112
e 108 114
e 108 115
e 108 120
e 108 121
e 108 131
e 108 132
e 108 134
e 108 136
e 108 138
e 108 139
e 108 146
e 108 147
e 108 152
e 108 153
e 108 161
e 108 164
e 108 168
e 108 169
e 108 172
e 108 174
e 108 175
e 108 176
e 108 177
e 108 182
e 108 185
e 108 188
e 108 192
e 109 120
e 109 121
e 109 127
e 109 128
e 109 130
e 109 135
e 109 143
e 109 152
e 109 158
e 109 185
e 109 186
e 109 189
e 110 115
e 110 116
e 110 118
e 110 128
e 110 130
e 110 133
e 110 134
e 110 140
e 110 156
e 110 157
e 110 158
e 110 162
e 110 170
e 110 180
e 110 183
e 110 184
e 110 188
e 110 200
e 111 112
e 111 121
e 111 125
e 111 126
e 111 127
e 111 129
e 111 135
e 111 136
e 111 137
e 111 138
e 111 147
e 111 155
e 111 157
e 111 161
e 111 162
e 111 163
e 111 165
e 111 167
e 111 168
e 111 184
e 111 194
e 111 198
e 112 116
e 112 120
e 112 133
e 112 139
e 112 147
e 112 151
e 112 158
e 112 160
e 112 162
e 112 177
e 112 180
e 112 185
e 112 189
e 112 191
e 113 117
e 113 118
e 113 125
e 113 153
e 113 157
e 113 160
e 113 161
e 113 167
e 113 171
e 113 172
e 113 178
e 113 183
e 113 194
e 114 119
e 114 120
e 114 124
e 114 125
e 114 132
e 114 133
e 114 140
e 114 150
e 114 153
e 114 154
e 114 155
e 114 158
e 114 162
e 114 169
e 114 171
e 114 178
e 114 180
e 114 194
e 114 198
e 115 117
e 115 118
e 115 119
e 115 127
e 115 129
e 115 130
e 115 137
e 115 138
e 115 140
e 115 147
e 115 150
e 115 158
e 115 162
e 115 164
e 115 165
e 115 170
e 115 172
e 115 176
e 115 177
e 115 191
e 115 192
e 115 194
e 116 125
e 116 133
e 116 134
e 116 138
e 116 141
e 116 153
e 116 154
e 116 155
e 116 156
e 116 158
e 116 174
e 116 180
e 116 182
e 116 183
e 116 184
e 116 187
e 116 193
e 116 198
e 117 124
e 117 125
e 117 126
e 117 136
e 117 157
e 117 161
e 117 167
e 117 171
e 117 172
e 117 185
e 117 189
e 117 190
e 117 196
e 118 127
e 118 133
e 118 135
e 118 139
e 118 146
e 118 161
e 118 166
e 118 167
e 118 169
e 118 179
e 118 180
e 118 188
e 118 189
e 118 191
e 119 120
e 119 132
e 119 142
e 119 161
e 119 164
e 119 171
e 119 177
e 119 178
e 119 180
e 119 181
e 119 184
e 119 186
e 120 121
e 120 127
e 120 128
e 120 131
e 120 135
e 120 139
e 120 145
e 120 165
e 120 168
e 120 171
e 120 172
e 120 178
e 120 179
e 120 184
e 120 185
e 120 189
e 120 198
e 121 130
e 121 140
e 121 157
e 121 159
e 121 161
e 121 168
e 121 169
e 121 170
e 121 180
e 121 182
e 121 186
e 121 187
e 121 195
e 122 123
e 122 124
e 122 140
e 122 143
e 122 148
e 122 155
e 122 163
e 122 181
e 122 190
e 122 195
e 122 196
e 123 127
e 123 128
e 123 130
e 123 142
e 123 152
e 123 155
e 123 158
e 123 160
e 123 163
e 123 169
e 123 172
e 123 174
e 123 191
e 123 197
e 124 127
e 124 128
e 124 132
e 124 147
e 124 150
e 124 154
e 124 160
e 124 164
e 124 165
e 124 173
e 124 177
e 124 198
e 124 200
e 125 139
e 125 140
e 125 143
e 125 145
e 125 147
e 125 150
e 125 152
e 125 172
e 125 173
e 125 177
e 125 178
e 125 179
e 125 183
e 125 184
e 125 189
e 125 191
e 125 197
e 125 198
e 125 199
e 126 133
e 126 134
e 126 135
e 126 136
e 126 138
e 126 142
e 126 158
e 126 165
e 126 168
e 126 169
e 126 173
e 126 180
e 126 187
e 126 195
e 126 197
e 127 129
e 127 133
e 127 137
e 127 138
e 127 143
e 127 149
e 127 150
e 127 151
e 127 160
e 127 170
e 127 173
e 127 190
e 127 200
e 128 151
e 128 152
e 128 159
e 128 167
e 128 168
e 128 174
e 128 175
e 128 177
e 128 190
e 128 194
e 128 195
e 128 199
e 129 133
e 129 136
e 129 142
e 129 145
e 129 153
e 129 157
e 129 168
e 129 184
e 129 185
e 129 191
e 129 192
e 129 194
e 129 195
e 130 139
e 130 148
e 130 150
e 130 155
e 130 178
e 130 187
e 130 189
e 130 195
e 130 197
e 130 200
e 131 143
e 131 144
e 131 145
e 131 148
e 131 149
e 131 152
e 131 156
e 131 163
e 131 169
e 131 176
e 131 184
e 131 186
e 131 195
e 131 196
e 131 200
e 132 138
e 132 139
e 132 140
e 132 147
e 132 162
e 132 184
e 132 192
e 133 134
e 133 136
e 133 139
e 133 154
e 133 157
e 133 164
e 133 166
e 133 173
e 133 175
e 133 181
e 133 184
e 133 187
e 133 198
e 133 200
e 134 135
e 134 142
e 134 146
e 134 147
e 134 148
e 134 151
e 134 153
e 134 162
e 134 178
e 134 179
e 134 184
e 134 187
e 134 193
e 134 197
e 134 199
e 135 137
e 135 139
e 135 162
e 135 168
e 135 172
e 135 188
e 135 195
e 136 147
e 136 148
e 136 149
e 136 156
e 136 157
e 136 158
e 136 168
e 136 180
e 136 182
e 136 185
e 136 186
e 136 192
e 136 194
e 136 198
e 137 142
e 137 143
e 137 152
e 137 156
e 137 157
e 137 159
e 137 160
e 137 166
e 137 168
e 137 177
e 137 181
e 137 182
e 137 188
e 137 191
e 137 194
e 138 139
e 138 152
e 138 160
e 138 167
e 138 168
e 138 170
e 138 180
e 138 182
e 138 184
e 138 189
e 138 191
e 138 192
e 138 198
e 138 199
e 139 141
e 139 151
e 139 159
e 139 161
e 139 177
e 139 179
e 139 186
e 139 190
e 139 192
e 139 193
e 139 197
e 140 141
e 140 146
e 140 148
e 140 152
e 140 155
e 140 158
e 140 162
e 140 163
e 140 166
e 140 168
e 140 185
e 140 193
e 140 194
e 140 198
e 141 146
e 141 148
e 141 158
e 141 165
e 141 166
e 141 173
e 141 178
e 141 193
e 141 194
e 142 153
e 142 165
e 142 167
e 142 169
e 142 170
e 142 173
e 142 178
e 142 193
e 142 194
e 142 195
e 142 200
e 143 148
e 143 156
e 143 160
e 143 161
e 143 166
e 143 167
e 143 171
e 143 173
e 143 183
e 143 184
e 143 187
e 143 189
e 143 197
e 143 200
e 144 145
e 144 146
e 144 149
e 144 151
e 144 154
e 144 161
e 144 166
e 144 171
e 144 178
e 144 182
e 144 189
e 144 193
e 144 194
e 145 146
e 145 150
e 145 152
e 145 155
e 145 164
e 145 169
e 145 172
e 145 173
e 145 175
e 145 194
e 145 196
e 146 154
e 146 155
e 146 161
e 146 163
e 146 169
e 146 172
e 146 176
e 146 183
e 146 190
e 146 194
e 146 197
e 146 199
e 147 161
e 147 170
e 147 171
e 147 174
e 147 179
e 147 181
e 147 182
e 147 183
e 147 187
e 147 191
e 147 194
e 147 196
e 147 198
e 147 200
e 148 149
e 148 160
e 148 181
e 148 182
e 148 184
e 148 188
e 148 192
e 148 198
e 149 152
e 149 156
e 149 157
e 149 162
e 149 165
e 149 166
e 149 182
e 149 186
e 149 187
e 149 188
e 149 192
e 149 194
e 150 156
e 150 168
e 150 184
e 151 153
e 151 168
e 151 170
e 151 176
e 151 181
e 151 184
e 151 192
e 151 193
e 151 200
e 152 159
e 152 162
e 152 163
e 152 165
e 152 173
e 152 176
e 152 177
e 152 179
e 152 183
e 152 188
e 152 194
e 153 161
e 153 163
e 153 164
e 153 165
e 153 177
e 153 179
e 153 185
e 154 157
e 154 159
e 154 162
e 154 164
e 154 165
e 154 168
e 154 170
e 154 188
e 154 190
e 154 191
e 154 199
e 155 158
e 155 165
e 155 166
e 155 170
e 155 176
e 155 190
e 155 194
e 156 160
e 156 161
e 156 164
e 156 171
e 156 183
e 156 185
e 156 190
e 156 198
e 156 199
e 157 158
e 157 164
e 157 165
e 157 167
e 157 168
e 157 177
e 157 182
e 157 189
e 157 194
e 157 197
e 157 199
e 158 160
e 158 171
e 158 174
e 158 177
e 158 184
e 158 185
e 158 190
e 158 192
e 158 194
e 158 195
e 158 199
e 159 162
e 159 163
e 159 165
e 159 168
e 159 173
e 159 174
e 159 177
e 159 183
e 160 161
e 160 164
e 160 169
e 160 171
e 160 174
e 160 177
e 160 178
e 160 179
e 160 186
e 160 187
e 160 192
e 160 199
e 161 166
e 161 173
e 161 175
e 161 182
e 161 183
e 161 186
e 161 191
e 161 195
e 162 163
e 162 166
e 162 170
e 162 171
e 162 176
e 162 177
e 162 190
e 162 191
e 162 195
e 162 200
e 163 164
e 163 169
e 163 176
e 163 180
e 163 181
e 163 182
e 163 185
e 163 197
e 163 198
e 164 168
e 164 171
e 164 188
e 164 189
e 164 197
e 165 185
e 165 190
e 165 196
e 166 168
e 166 172
e 166 186
e 166 187
e 166 189
e 166 190
e 166 199
e 166 200
e 167 173
e 167 174
e 167 175
e 167 176
e 167 177
e 167 178
e 167 180
e 167 198
e 167 199
e 167 200
e 168 171
e 168 174
e 168 176
e 168 198
e 168 199
e 169 170
e 169 174
e 169 177
e 169 194
e 169 196
e 169 200
e 170 178
e 170 179
e 170 181
e 170 187
e 170 188
e 170 195
e 171 190
e 171 195
e 171 198
e 171 199
e 172 178
e 172 186
e 172 191
e 172 198
e 172 200
e 173 183
e 173 193
e 173 194
e 173 196
e 173 200
e 174 175
e 174 183
e 174 186
e 174 189
e 174 193
e 174 194
e 175 190
e 176 177
e 176 183
e 176 184
e 176 185
e 176 190
e 176 195
e 176 199
e 177 184
e 177 188
e 177 196
e 177 198
e 177 200
e 178 179
e 178 189
e 178 196
e 179 183
e 179 187
e 179 190
e 180 186
e 180 187
e 180 194
e 180 199
e 181 185
e 181 192
e 181 194
e 181 200
e 182 187
e 182 189
e 182 190
e 182 199
e 183 188
e 183 189
e 183 192
e 183 199
e 184 198
e 185 187
e 185 194
e 186 188
e 186 197
e 187 189
e 187 190
e 187 195
e 188 194
e 189 190
e 189 195
e 189 197
e 190 193
e 190 198
e 191 193
e 191 198
e 193 194
e 194 196
e 194 197
e 197 198
e 198 200
e 199 200